(set-logic ALL)
(set-option :produce-models true)
(declare-sort BoundSet 0)
(declare-sort UnboundSet 0)
(declare-fun IsDrinks (BoundSet) Bool)
(declare-fun IsParties (BoundSet) Bool)
(declare-fun IsNotTrusted (BoundSet BoundSet) Bool)
(assert (not (=> (exists ((a BoundSet)) (and (IsDrinks a) (IsParties a))) (exists ((b BoundSet)) (exists ((a BoundSet)) (IsNotTrusted b a))))))
(check-sat)
(get-model)